(set-info :smt-lib-version 2.6)
(set-logic QF_S)
(set-info :source |
Generated by: Murphy Berzish, Mitja Kulczynski, Federico Mora, Florin Manea, Joel Day, Dirk Nowotka, Vijay Ganesh, Zhengyang Lu
Generated on: 2020-10-01
Description: Translated from a collection of real-world regex queries, AutomataArk, collected by Loris D’Antoni and Fang Wang: https://github.com/lorisdanto/automatark
Application: Evaluate solvers on real-world regex queries
Target solver: Z3str3RE, CVC4, OSTRICH, Z3seq, Z3str3, Z3-Trau
Publications: Berzish, M., Kulczynski, M., Mora, F., Manea, F., Day, J. D., Nowotka, D., & Ganesh, V. (2021, July). An SMT solver for regular expressions and linear arithmetic over string length. In CAV 2021.
|)
(set-info :license "https://creativecommons.org/licenses/by/4.0/")
(set-info :category "industrial")
(set-info :status sat)

(declare-const X String)
(assert (not (str.in_re X (re.++ (re.union (re.++ (str.to_re "Jan") (re.opt (str.to_re "uary"))) (re.++ (str.to_re "Feb") (re.opt (str.to_re "ruary"))) (re.++ (str.to_re "Mar") (re.opt (str.to_re "ch"))) (re.++ (str.to_re "Apr") (re.opt (str.to_re "il"))) (str.to_re "May") (re.++ (str.to_re "Jun") (re.opt (str.to_re "e"))) (re.++ (str.to_re "Jul") (re.opt (str.to_re "y"))) (re.++ (str.to_re "Aug") (re.opt (str.to_re "ust"))) (re.++ (str.to_re "Sep") (re.opt (str.to_re "tember"))) (str.to_re "Sept") (re.++ (str.to_re "Oct") (re.opt (str.to_re "ober"))) (re.++ (str.to_re "Nov") (re.opt (str.to_re "ember"))) (re.++ (str.to_re "Dec") (re.opt (str.to_re "ember")))) (str.to_re "\u{a}")))))
(assert (not (str.in_re X (re.++ (str.to_re "client.baigoo.com") (re.+ (re.union (str.to_re " ") (str.to_re "\u{9}") (str.to_re "\u{a}") (str.to_re "\u{c}") (str.to_re "\u{d}"))) (str.to_re "ised2k\u{a}")))))
(assert (not (str.in_re X (re.++ (str.to_re "<img") (re.union (str.to_re " ") (str.to_re "\u{9}") (str.to_re "\u{a}") (str.to_re "\u{c}") (str.to_re "\u{d}")) (re.* (re.++ (re.union (str.to_re "width") (str.to_re "height") (str.to_re "alt") (str.to_re "align") (str.to_re "style")) (str.to_re "=\u{22}") (re.* (re.comp (str.to_re "\u{22}"))) (str.to_re "\u{22}") (re.union (str.to_re " ") (str.to_re "\u{9}") (str.to_re "\u{a}") (str.to_re "\u{c}") (str.to_re "\u{d}")))) (str.to_re "src=\u{22}") (re.+ (re.++ (re.opt (str.to_re "/")) (re.union (re.range "a" "z") (re.range "0" "9") (str.to_re "_") (str.to_re "-")) (re.opt (str.to_re "/")))) (str.to_re ".") (re.union (str.to_re "png") (str.to_re "jpg") (str.to_re "jpeg") (str.to_re "gif")) (str.to_re "\u{22}") (re.* (re.++ (re.union (str.to_re " ") (str.to_re "\u{9}") (str.to_re "\u{a}") (str.to_re "\u{c}") (str.to_re "\u{d}")) (re.union (str.to_re "width") (str.to_re "height") (str.to_re "alt") (str.to_re "align") (str.to_re "style")) (str.to_re "=\u{22}") (re.* (re.comp (str.to_re "\u{22}"))) (str.to_re "\u{22}"))) (re.* (re.union (str.to_re " ") (str.to_re "\u{9}") (str.to_re "\u{a}") (str.to_re "\u{c}") (str.to_re "\u{d}"))) (str.to_re "/>\u{a}")))))
(assert (not (str.in_re X (re.++ (re.opt (re.++ (re.union (str.to_re "+") (str.to_re "00")) (str.to_re "39"))) ((_ re.loop 7 7) (re.range "0" "9")) (str.to_re "\u{a}3") (re.range "1" "6") (re.range "0" "9")))))
(assert (str.in_re X (re.++ (str.to_re "Toolbar") (re.+ (re.union (re.range "0" "9") (re.range "A" "Z") (re.range "a" "z") (str.to_re "_"))) (str.to_re "SoftActivity\u{13}password;0;Incorrect\u{a}"))))
(check-sat)

(exit)
